Casos de prueba/Caso4.txt
40
5
8,10,5,9,8
0.12,0.33,0.51,0.72,0.94
3,3,2
2,5,3
1,2,2
2,4,3
3,3,2
60
20
